p tw 68 1217
0 1
0 2
0 3
0 4
0 5
0 6
0 7
0 8
0 9
0 10
0 11
0 12
0 13
0 14
0 15
0 19
0 24
0 33
0 34
0 36
0 41
0 42
0 43
0 44
0 45
0 46
0 17
0 18
0 26
0 28
0 37
0 47
0 55
0 58
0 59
0 61
0 65
1 2
1 3
1 4
1 5
1 6
1 7
1 8
1 9
1 10
1 11
1 12
1 13
1 14
1 15
1 21
1 23
1 25
1 26
1 28
1 30
1 37
1 39
1 43
1 45
1 48
1 54
1 55
1 59
1 17
1 18
1 19
1 20
1 24
1 50
1 61
1 62
1 63
1 64
1 16
1 27
1 36
1 52
1 66
1 67
2 3
2 4
2 5
2 6
2 7
2 8
2 9
2 10
2 11
2 12
2 13
2 14
2 15
2 16
2 17
2 18
2 19
2 20
2 21
2 22
2 23
2 24
2 25
2 26
2 27
2 32
2 33
2 36
2 39
2 40
2 41
2 42
2 43
2 28
2 35
2 47
2 48
2 49
2 50
2 51
3 4
3 5
3 6
3 7
3 8
3 9
3 10
3 11
3 12
3 13
3 14
3 15
3 19
3 20
3 23
3 32
3 33
3 36
3 39
3 40
3 41
3 42
3 43
3 24
3 34
3 44
3 45
3 46
4 5
4 6
4 7
4 8
4 9
4 10
4 11
4 12
4 13
4 14
4 15
4 18
4 35
4 40
4 44
4 50
4 52
4 53
4 54
4 55
4 56
4 57
4 58
4 59
4 17
4 19
4 20
4 23
4 24
4 25
4 48
4 61
4 62
4 63
4 64
4 26
4 28
4 31
4 33
4 47
4 51
4 66
5 6
5 7
5 8
5 9
5 10
5 11
5 12
5 13
5 14
5 15
5 19
5 20
5 23
5 32
5 33
5 36
5 39
5 40
5 41
5 42
5 43
5 18
5 35
5 44
5 50
5 52
5 53
5 54
5 55
5 56
5 57
5 58
5 59
5 21
5 25
5 26
5 28
5 30
5 37
5 45
5 48
6 7
6 8
6 9
6 10
6 11
6 12
6 13
6 14
6 15
6 16
6 17
6 18
6 19
6 20
6 21
6 22
6 23
6 24
6 25
6 26
6 27
6 32
6 33
6 36
6 39
6 40
6 41
6 42
6 43
6 28
6 31
6 47
6 51
6 58
6 63
6 66
7 8
7 9
7 10
7 11
7 12
7 13
7 14
7 15
7 26
7 28
7 29
7 30
7 31
7 32
7 33
7 34
7 35
7 36
7 37
7 38
7 16
7 17
7 23
7 24
7 27
7 43
7 50
7 52
7 54
7 63
7 66
7 67
8 9
8 10
8 11
8 12
8 13
8 14
8 15
8 19
8 24
8 33
8 34
8 36
8 41
8 42
8 43
8 44
8 45
8 46
8 21
8 23
8 25
8 26
8 28
8 30
8 37
8 39
8 48
8 54
8 55
8 59
8 17
8 18
8 47
8 58
8 61
8 65
9 10
9 11
9 12
9 13
9 14
9 15
9 26
9 28
9 29
9 30
9 31
9 32
9 33
9 34
9 35
9 36
9 37
9 38
9 19
9 20
9 23
9 39
9 40
9 41
9 42
9 43
9 16
9 22
9 25
9 27
9 47
9 48
9 49
9 50
9 51
9 18
9 44
9 52
9 53
9 54
9 55
9 56
9 57
9 58
9 59
9 17
9 24
9 63
9 66
9 67
10 11
10 12
10 13
10 14
10 15
10 26
10 28
10 29
10 30
10 31
10 32
10 33
10 34
10 35
10 36
10 37
10 38
11 12
11 13
11 14
11 15
11 19
11 24
11 33
11 34
11 36
11 41
11 42
11 43
11 44
11 45
11 46
11 18
11 35
11 40
11 50
11 52
11 53
11 54
11 55
11 56
11 57
11 58
11 59
11 29
11 30
11 32
11 49
11 51
11 60
11 21
11 23
11 25
11 26
11 28
11 37
11 39
11 48
12 13
12 14
12 15
12 16
12 17
12 18
12 19
12 20
12 21
12 22
12 23
12 24
12 25
12 26
12 27
12 29
12 30
12 32
12 34
12 46
12 49
12 51
12 55
12 59
12 60
13 14
13 15
13 19
13 24
13 33
13 34
13 36
13 41
13 42
13 43
13 44
13 45
13 46
13 18
13 35
13 40
13 50
13 52
13 53
13 54
13 55
13 56
13 57
13 58
13 59
13 16
13 17
13 23
13 27
13 63
13 66
13 67
13 25
13 26
13 28
13 31
13 47
13 51
14 15
14 16
14 17
14 18
14 19
14 20
14 21
14 22
14 23
14 24
14 25
14 26
14 27
15 19
15 24
15 33
15 34
15 36
15 41
15 42
15 43
15 44
15 45
15 46
15 16
15 20
15 22
15 23
15 25
15 27
15 28
15 35
15 39
15 47
15 48
15 49
15 50
15 51
16 17
16 18
16 19
16 20
16 21
16 22
16 23
16 24
16 25
16 26
16 27
16 28
16 35
16 39
16 47
16 48
16 49
16 50
16 51
16 36
16 43
16 52
16 54
16 63
16 66
16 67
17 18
17 19
17 20
17 21
17 22
17 23
17 24
17 25
17 26
17 27
17 48
17 50
17 55
17 61
17 62
17 63
17 64
17 28
17 37
17 43
17 45
17 47
17 58
17 59
17 65
17 36
17 52
17 54
17 66
17 67
18 19
18 20
18 21
18 22
18 23
18 24
18 25
18 26
18 27
18 35
18 40
18 44
18 50
18 52
18 53
18 54
18 55
18 56
18 57
18 58
18 59
18 48
18 61
18 62
18 63
18 64
18 28
18 37
18 43
18 45
18 47
18 65
19 20
19 21
19 22
19 23
19 24
19 25
19 26
19 27
19 32
19 33
19 36
19 39
19 40
19 41
19 42
19 43
19 34
19 44
19 45
19 46
19 48
19 50
19 55
19 61
19 62
19 63
19 64
19 28
19 37
19 47
19 58
19 59
19 65
19 31
19 51
19 66
20 21
20 22
20 23
20 24
20 25
20 26
20 27
20 32
20 33
20 36
20 39
20 40
20 41
20 42
20 43
20 28
20 35
20 47
20 48
20 49
20 50
20 51
20 55
20 61
20 62
20 63
20 64
21 22
21 23
21 24
21 25
21 26
21 27
21 28
21 30
21 37
21 39
21 43
21 45
21 48
21 54
21 55
21 59
22 23
22 24
22 25
22 26
22 27
22 28
22 35
22 39
22 47
22 48
22 49
22 50
22 51
23 24
23 25
23 26
23 27
23 32
23 33
23 36
23 39
23 40
23 41
23 42
23 43
23 28
23 35
23 47
23 48
23 49
23 50
23 51
23 30
23 37
23 45
23 54
23 55
23 59
23 61
23 62
23 63
23 64
23 52
23 66
23 67
23 31
23 58
24 25
24 26
24 27
24 33
24 34
24 36
24 41
24 42
24 43
24 44
24 45
24 46
24 29
24 30
24 32
24 49
24 51
24 55
24 59
24 60
24 48
24 50
24 61
24 62
24 63
24 64
24 28
24 37
24 47
24 58
24 65
24 52
24 54
24 66
24 67
25 26
25 27
25 28
25 35
25 39
25 47
25 48
25 49
25 50
25 51
25 30
25 37
25 43
25 45
25 54
25 55
25 59
25 61
25 62
25 63
25 64
25 31
25 33
25 40
25 58
25 66
26 27
26 28
26 29
26 30
26 31
26 32
26 33
26 34
26 35
26 36
26 37
26 38
26 39
26 43
26 45
26 48
26 54
26 55
26 59
26 47
26 58
26 61
26 65
26 40
26 51
26 63
26 66
27 28
27 35
27 39
27 47
27 48
27 49
27 50
27 51
27 36
27 43
27 52
27 54
27 63
27 66
27 67
28 29
28 30
28 31
28 32
28 33
28 34
28 35
28 36
28 37
28 38
28 39
28 47
28 48
28 49
28 50
28 51
28 43
28 45
28 54
28 55
28 59
28 58
28 61
28 65
28 40
28 63
28 66
29 30
29 31
29 32
29 33
29 34
29 35
29 36
29 37
29 38
29 46
29 49
29 51
29 55
29 59
29 60
30 31
30 32
30 33
30 34
30 35
30 36
30 37
30 38
30 46
30 49
30 51
30 55
30 59
30 60
30 39
30 43
30 45
30 48
30 54
31 32
31 33
31 34
31 35
31 36
31 37
31 38
31 40
31 47
31 51
31 58
31 63
31 66
32 33
32 34
32 35
32 36
32 37
32 38
32 39
32 40
32 41
32 42
32 43
32 46
32 49
32 51
32 55
32 59
32 60
33 34
33 35
33 36
33 37
33 38
33 39
33 40
33 41
33 42
33 43
33 44
33 45
33 46
33 47
33 51
33 58
33 63
33 66
34 35
34 36
34 37
34 38
34 41
34 42
34 43
34 44
34 45
34 46
34 49
34 51
34 55
34 59
34 60
35 36
35 37
35 38
35 39
35 47
35 48
35 49
35 50
35 51
35 40
35 44
35 52
35 53
35 54
35 55
35 56
35 57
35 58
35 59
36 37
36 38
36 39
36 40
36 41
36 42
36 43
36 44
36 45
36 46
36 50
36 52
36 54
36 63
36 66
36 67
37 38
37 39
37 43
37 45
37 48
37 54
37 55
37 59
37 47
37 58
37 61
37 65
39 40
39 41
39 42
39 43
39 47
39 48
39 49
39 50
39 51
39 45
39 54
39 55
39 59
40 41
40 42
40 43
40 44
40 50
40 52
40 53
40 54
40 55
40 56
40 57
40 58
40 59
40 47
40 51
40 63
40 66
41 42
41 43
41 44
41 45
41 46
42 43
42 44
42 45
42 46
43 44
43 45
43 46
43 48
43 54
43 55
43 59
43 47
43 58
43 61
43 65
43 50
43 52
43 63
43 66
43 67
44 45
44 46
44 50
44 52
44 53
44 54
44 55
44 56
44 57
44 58
44 59
45 46
45 48
45 54
45 55
45 59
45 47
45 58
45 61
45 65
46 49
46 51
46 55
46 59
46 60
47 48
47 49
47 50
47 51
47 55
47 58
47 59
47 61
47 65
47 63
47 66
48 49
48 50
48 51
48 54
48 55
48 59
48 61
48 62
48 63
48 64
49 50
49 51
49 55
49 59
49 60
50 51
50 52
50 53
50 54
50 55
50 56
50 57
50 58
50 59
50 61
50 62
50 63
50 64
50 66
50 67
51 55
51 59
51 60
51 58
51 63
51 66
52 53
52 54
52 55
52 56
52 57
52 58
52 59
52 63
52 66
52 67
53 54
53 55
53 56
53 57
53 58
53 59
54 55
54 56
54 57
54 58
54 59
54 63
54 66
54 67
55 56
55 57
55 58
55 59
55 60
55 61
55 62
55 63
55 64
55 65
56 57
56 58
56 59
57 58
57 59
58 59
58 61
58 65
58 63
58 66
59 60
59 61
59 65
61 62
61 63
61 64
61 65
62 63
62 64
63 64
63 66
63 67
66 67
